data;


param d:= 100;
param r:=5;
param p:=0.200000;
param M:=1000;
param U:=
         1         1       -4.040808e-01
         2         1        2.096942e-01
         3         1        1.677333e+00
         4         1        6.074185e-01
         5         1        5.442858e-01
         6         1       -1.403606e+00
         7         1        1.787352e+00
         8         1        3.804399e-01
         9         1        1.406581e+00
        10         1        1.681534e+00
        11         1       -1.565358e-01
        12         1        5.524032e-01
        13         1        6.913259e-01
        14         1        1.506587e+00
        15         1        1.461784e+00
        16         1        1.484969e+00
        17         1        8.440767e-01
        18         1        6.960108e-01
        19         1        1.318818e+00
        20         1        1.178557e+00
        21         1       -1.389355e+00
        22         1       -6.027202e-01
        23         1        4.017797e-01
        24         1       -7.295667e-01
        25         1        1.850105e-02
        26         1        1.334946e+00
        27         1        1.896674e+00
        28         1       -5.173765e-01
        29         1       -2.325327e-01
        30         1       -4.532303e-01
        31         1        2.068848e-01
        32         1        1.026961e+00
        33         1       -4.078861e-02
        34         1        1.705430e+00
        35         1       -1.998266e+00
        36         1        6.232811e-02
        37         1        8.161911e-01
        38         1        7.184681e-01
        39         1        8.304989e-01
        40         1        7.002873e-01
        41         1        5.826563e-02
        42         1       -7.429015e-01
        43         1        2.484550e+00
        44         1        4.401278e-02
        45         1       -2.132736e-01
        46         1       -1.811121e-01
        47         1       -5.728291e-01
        48         1       -1.000762e+00
        49         1       -2.422987e-01
        50         1        8.828439e-01
        51         1        6.356168e-01
        52         1        1.763771e-01
        53         1       -4.892784e-01
        54         1       -9.253283e-01
        55         1        1.249753e-01
        56         1        1.055690e+00
        57         1        5.848341e-01
        58         1        7.521343e-01
        59         1       -2.461877e+00
        60         1       -5.304327e-01
        61         1        6.169227e-01
        62         1       -3.669140e-01
        63         1        1.723142e+00
        64         1       -2.796853e-01
        65         1       -8.625467e-01
        66         1       -1.171625e+00
        67         1       -3.115036e-01
        68         1        1.616250e+00
        69         1        6.885729e-01
        70         1       -3.288148e-01
        71         1       -1.723142e+00
        72         1        1.196989e+00
        73         1       -3.597774e-01
        74         1        1.087388e-01
        75         1        9.940956e-01
        76         1       -8.631147e-01
        77         1       -7.343063e-01
        78         1        6.758913e-01
        79         1       -6.294673e-02
        80         1        4.932866e-01
        81         1        8.383888e-01
        82         1       -1.579234e+00
        83         1        5.496873e-01
        84         1       -1.227869e+00
        85         1       -9.270053e-01
        86         1       -3.958279e-01
        87         1        5.616581e-01
        88         1       -1.051573e-01
        89         1       -1.049148e+00
        90         1        1.940455e+00
        91         1        5.918904e-01
        92         1       -5.113976e-03
        93         1       -9.144078e-01
        94         1       -2.936794e-01
        95         1        8.309417e-01
        96         1        1.797928e-01
        97         1       -5.894213e-01
        98         1        6.789399e-01
        99         1       -2.321567e-01
       100         1       -2.100012e-01
         1         2       -1.822267e+00
         2         2        2.297856e-01
         3         2       -1.065850e+00
         4         2       -1.215062e+00
         5         2       -1.490788e+00
         6         2        9.389969e-01
         7         2        9.022831e-01
         8         2       -1.539472e-01
         9         2        4.320773e-01
        10         2        1.899045e+00
        11         2        2.208930e+00
        12         2       -1.080268e+00
        13         2       -1.107531e+00
        14         2        1.251435e+00
        15         2        7.134593e-01
        16         2        1.137735e+00
        17         2        7.129083e-01
        18         2       -9.911245e-01
        19         2       -3.825185e-01
        20         2       -1.497249e+00
        21         2       -2.650549e+00
        22         2        1.649691e+00
        23         2        6.710163e-01
        24         2        3.496473e-01
        25         2        1.395302e+00
        26         2       -9.199557e-02
        27         2       -1.612970e+00
        28         2       -1.410577e+00
        29         2        2.720805e-01
        30         2        1.522673e+00
        31         2       -3.108731e-02
        32         2        4.379952e-01
        33         2        1.692237e-01
        34         2       -1.819920e+00
        35         2        4.766535e-01
        36         2        3.968111e-02
        37         2        8.842811e-01
        38         2       -2.332572e-01
        39         2        3.104021e-02
        40         2       -1.692610e-01
        41         2        2.664404e-01
        42         2        9.930450e-01
        43         2       -1.487353e+00
        44         2       -1.474679e+00
        45         2        5.509026e-02
        46         2        1.007737e+00
        47         2        6.008039e-01
        48         2        1.604402e+00
        49         2        8.702033e-02
        50         2       -6.874743e-01
        51         2       -5.127977e-02
        52         2       -4.488263e-01
        53         2       -6.428104e-01
        54         2       -1.267237e-01
        55         2       -7.648172e-01
        56         2       -2.884243e+00
        57         2        5.135443e-01
        58         2        1.059142e+00
        59         2       -1.739825e-01
        60         2        9.679073e-01
        61         2       -7.150505e-02
        62         2       -6.870943e-01
        63         2       -1.914751e-01
        64         2        1.615080e-01
        65         2       -1.509135e+00
        66         2       -8.549859e-01
        67         2        3.287745e-01
        68         2        8.799325e-01
        69         2        8.046452e-01
        70         2        1.920721e+00
        71         2        2.211409e-01
        72         2        4.396240e-01
        73         2       -3.821826e-02
        74         2       -8.349291e-01
        75         2       -1.301787e+00
        76         2        2.447386e-02
        77         2       -9.923824e-02
        78         2       -1.392516e+00
        79         2        1.074228e+00
        80         2       -1.532031e+00
        81         2        9.118777e-01
        82         2        3.437646e-01
        83         2       -1.728573e+00
        84         2       -4.793499e-01
        85         2       -1.152691e-01
        86         2       -1.954038e-01
        87         2        3.375275e-01
        88         2       -2.773764e-01
        89         2        1.281294e-01
        90         2        7.155745e-01
        91         2       -1.045357e+00
        92         2       -3.817876e-01
        93         2        4.598517e-01
        94         2        1.219625e+00
        95         2        1.049455e+00
        96         2        9.066915e-01
        97         2       -1.034842e+00
        98         2       -1.750721e-01
        99         2        9.388439e-01
       100         2       -2.135552e+00
         1         3       -5.574953e-01
         2         3       -1.211315e-01
         3         3       -1.778158e+00
         4         3       -7.760403e-01
         5         3       -1.137522e+00
         6         3        1.095478e-01
         7         3       -1.945080e+00
         8         3       -2.577591e-01
         9         3        8.074806e-01
        10         3        2.811771e-01
        11         3        4.946299e-01
        12         3       -1.235125e+00
        13         3        9.157808e-01
        14         3        4.807736e-01
        15         3        5.939056e-01
        16         3       -5.388007e-01
        17         3        6.020231e-01
        18         3       -1.298822e+00
        19         3        1.063441e+00
        20         3       -1.164632e-01
        21         3        1.488953e-01
        22         3       -1.407277e-01
        23         3        1.756789e-01
        24         3       -5.141143e-01
        25         3       -6.870841e-01
        26         3       -5.728549e-01
        27         3        5.893030e-02
        28         3        1.070003e+00
        29         3        1.205156e-01
        30         3       -7.539173e-01
        31         3        9.897946e-01
        32         3       -9.632757e-01
        33         3        6.711231e-01
        34         3        1.055315e+00
        35         3       -4.352760e-01
        36         3       -1.086510e+00
        37         3       -2.678372e-01
        38         3       -1.472042e+00
        39         3        6.480925e-01
        40         3       -7.786314e-01
        41         3        3.874789e-01
        42         3       -2.615189e-01
        43         3       -3.794085e-01
        44         3       -1.237134e+00
        45         3       -7.016788e-02
        46         3       -1.028820e+00
        47         3        8.536013e-01
        48         3        2.837284e-01
        49         3        9.755570e-01
        50         3       -1.648040e+00
        51         3        2.565557e-01
        52         3       -1.358278e-01
        53         3        5.138141e-01
        54         3        9.258509e-02
        55         3       -5.680489e-02
        56         3        1.352084e+00
        57         3       -2.200789e+00
        58         3       -6.969976e-01
        59         3        1.863514e+00
        60         3       -4.110885e-01
        61         3        1.525041e-01
        62         3       -7.845823e-01
        63         3        7.454360e-01
        64         3       -7.166218e-01
        65         3        2.446609e-01
        66         3        9.613646e-01
        67         3        1.927957e-01
        68         3       -3.085845e-01
        69         3        1.127539e+00
        70         3       -5.506721e-01
        71         3        3.642647e-01
        72         3        1.974436e+00
        73         3       -1.327797e+00
        74         3        5.939337e-01
        75         3       -9.581933e-02
        76         3        2.002438e-01
        77         3       -8.228707e-01
        78         3       -1.441958e+00
        79         3       -2.119063e-01
        80         3       -1.494236e+00
        81         3        1.595516e+00
        82         3       -3.215594e-01
        83         3       -1.594627e+00
        84         3       -9.868295e-01
        85         3       -8.858096e-01
        86         3       -1.462241e-01
        87         3        7.564815e-01
        88         3       -2.975073e-01
        89         3       -1.778756e-01
        90         3       -1.276535e-01
        91         3        6.331161e-01
        92         3       -9.756974e-01
        93         3        1.889985e+00
        94         3        3.546999e-01
        95         3        7.969911e-01
        96         3        1.475910e-01
        97         3        1.275064e+00
        98         3       -6.919238e-01
        99         3        9.503502e-01
       100         3        1.781311e+00
         1         4       -5.590442e-01
         2         4        1.684394e-01
         3         4        3.476867e-01
         4         4       -4.047387e-01
         5         4        1.337223e+00
         6         4       -7.294827e-01
         7         4       -1.446988e+00
         8         4        1.690557e+00
         9         4        1.465223e+00
        10         4        2.876521e-01
        11         4        1.789005e-01
        12         4       -8.118957e-01
        13         4       -7.405553e-01
        14         4       -1.697001e-01
        15         4        7.867572e-01
        16         4       -1.249776e+00
        17         4        5.804242e-02
        18         4       -3.795943e-01
        19         4        1.008059e+00
        20         4        1.603704e+00
        21         4       -8.281610e-01
        22         4       -6.046658e-01
        23         4        7.463949e-01
        24         4        6.763204e-01
        25         4        2.115984e-01
        26         4       -1.848898e+00
        27         4        5.305315e-01
        28         4        8.052955e-01
        29         4       -1.627680e+00
        30         4       -1.428411e-01
        31         4        1.988294e-01
        32         4       -7.820987e-01
        33         4       -6.377905e-01
        34         4        6.845377e-01
        35         4        1.897151e+00
        36         4        1.519934e+00
        37         4        8.860600e-01
        38         4       -9.417890e-01
        39         4       -1.621308e+00
        40         4        1.134786e+00
        41         4        7.445312e-01
        42         4       -1.050981e-01
        43         4       -2.837654e-01
        44         4       -6.313380e-02
        45         4       -2.820326e-01
        46         4        1.784531e+00
        47         4       -1.661884e+00
        48         4        1.380273e+00
        49         4        1.420388e+00
        50         4        6.294356e-02
        51         4       -2.248736e-01
        52         4        1.540493e-01
        53         4       -3.154735e-01
        54         4        5.049189e-01
        55         4        6.038575e-01
        56         4        9.180290e-01
        57         4        5.365338e-01
        58         4        7.078888e-01
        59         4        8.712694e-01
        60         4       -2.593426e+00
        61         4        8.322893e-02
        62         4       -1.304185e+00
        63         4       -4.969854e-01
        64         4        4.727741e-01
        65         4       -1.843796e+00
        66         4       -1.284424e-01
        67         4        7.028573e-01
        68         4       -1.151895e+00
        69         4       -1.735995e+00
        70         4       -2.105913e+00
        71         4        1.179913e+00
        72         4       -7.011883e-01
        73         4       -5.985700e-01
        74         4        6.379768e-01
        75         4       -1.130541e+00
        76         4        9.287837e-01
        77         4       -1.697561e+00
        78         4       -6.922821e-01
        79         4        1.565038e+00
        80         4        7.841282e-01
        81         4        2.032732e+00
        82         4        1.178681e+00
        83         4        9.471932e-02
        84         4        1.024248e+00
        85         4       -5.671099e-01
        86         4       -6.416371e-01
        87         4       -1.140204e+00
        88         4       -1.429210e+00
        89         4       -1.070887e+00
        90         4       -1.127626e+00
        91         4        5.182053e-01
        92         4       -2.071997e-02
        93         4        1.900098e-02
        94         4       -1.071277e+00
        95         4        6.255221e-01
        96         4       -1.803773e+00
        97         4       -9.046420e-01
        98         4        3.026512e-01
        99         4        1.982827e+00
       100         4        2.069495e-01
         1         5       -8.460627e-01
         2         5        7.214618e-01
         3         5        4.461535e-01
         4         5        2.251666e+00
         5         5        1.352236e+00
         6         5        5.680630e-01
         7         5       -4.762574e-01
         8         5       -3.685466e-01
         9         5       -4.098219e-01
        10         5       -7.242064e-01
        11         5        2.664107e+00
        12         5       -2.383448e-01
        13         5       -6.602358e-02
        14         5        6.243859e-01
        15         5       -3.023811e-01
        16         5        3.152580e-01
        17         5       -1.345356e-01
        18         5        5.119913e-01
        19         5        1.442806e+00
        20         5       -1.000305e+00
        21         5       -1.537979e+00
        22         5        3.133939e-02
        23         5       -6.538483e-02
        24         5       -8.360858e-01
        25         5        4.283727e-02
        26         5        8.074017e-01
        27         5        9.685234e-02
        28         5       -1.640345e-01
        29         5        1.233391e+00
        30         5        2.098984e+00
        31         5       -1.241184e+00
        32         5       -3.929474e-01
        33         5        7.008455e-01
        34         5       -2.677281e-01
        35         5       -9.842661e-01
        36         5        2.137617e-01
        37         5        2.002255e+00
        38         5        2.269621e-01
        39         5       -6.420433e-01
        40         5       -2.250035e-01
        41         5       -6.722190e-01
        42         5        2.481999e-01
        43         5       -1.513545e+00
        44         5        1.496586e-01
        45         5        1.265162e+00
        46         5       -3.460481e-01
        47         5       -1.157678e+00
        48         5        3.940531e-01
        49         5        1.516132e-01
        50         5       -2.433214e-01
        51         5        1.433702e-01
        52         5       -6.454110e-01
        53         5        8.343415e-01
        54         5        6.517208e-01
        55         5        1.338715e+00
        56         5        2.527298e-01
        57         5       -4.188203e-01
        58         5       -9.622659e-01
        59         5       -1.123633e-01
        60         5       -1.251541e+00
        61         5       -1.029305e+00
        62         5       -2.463650e+00
        63         5        3.554467e-01
        64         5       -1.836750e-01
        65         5        8.416717e-01
        66         5        4.874896e-01
        67         5       -3.904876e-01
        68         5        1.274734e-01
        69         5       -4.878917e-01
        70         5       -6.917139e-02
        71         5        5.178782e-02
        72         5       -3.055712e-01
        73         5        5.606793e-03
        74         5       -1.052831e+00
        75         5        2.276342e-01
        76         5       -3.929989e-01
        77         5       -8.216964e-01
        78         5        9.925882e-01
        79         5        9.851232e-01
        80         5        4.485589e-01
        81         5       -1.426057e+00
        82         5       -9.689698e-02
        83         5        6.744488e-01
        84         5        9.593124e-01
        85         5       -1.351565e+00
        86         5       -2.713458e-01
        87         5       -1.797546e+00
        88         5        2.369989e-02
        89         5        1.576660e+00
        90         5       -6.130724e-04
        91         5       -5.188222e-01
        92         5       -1.035071e-01
        93         5       -1.081903e+00
        94         5       -3.499801e-02
        95         5        8.823400e-01
        96         5        6.174589e-01
        97         5        3.302660e-02
        98         5        1.639898e+00
        99         5       -1.868833e-01
       100         5        8.750097e-01
;

param theta:=
    1        3.685860e-01
    2       -4.967646e-01
    3       -1.143002e+00
    4        1.700790e+00
    5        2.238521e-01
;
param X_true:=
    1        2.520570e-01
    2        5.488724e-01
    3        3.870504e+00
    4        1.529337e+00
    5        4.817375e+00
    6       -2.223071e+00
    7       -1.330208e-01
    8        3.304921e+00
    9        1.781360e+00
   10       -3.195737e-01
   11       -8.180542e-01
   12        7.171751e-01
   13       -1.518094e+00
   14       -7.645530e-01
   15        7.764691e-01
   16       -1.458039e+00
   17       -6.622779e-01
   18        1.702685e+00
   19        1.497673e+00
   20        3.815266e+00
   21       -1.116813e+00
   22       -1.902158e+00
   23        8.670591e-01
   24        1.108631e+00
   25        4.675665e-01
   26       -1.771260e+00
   27        2.356231e+00
   28        6.203843e-01
   29       -2.849467e+00
   30        1.640691e-01
   31       -9.775834e-01
   32       -1.548937e-01
   33       -1.794142e+00
   34        1.430035e+00
   35        2.530802e+00
   36        3.878527e+00
   37        2.122620e+00
   38        5.127245e-01
   39       -3.349583e+00
   40        3.112630e+00
   41        5.624475e-01
   42       -5.913856e-01
   43        1.267548e+00
   44        2.088151e+00
   45       -2.234974e-01
   46        3.565697e+00
   47       -4.572515e+00
   48        9.463718e-01
   49        1.201883e+00
   50        2.603217e+00
   51       -3.838549e-01
   52        5.605596e-01
   53       -7.974922e-01
   54        6.201861e-01
   55        1.816607e+00
   56        1.893123e+00
   57        3.294551e+00
   58        1.535807e+00
   59       -1.493824e+00
   60       -4.897955e+00
   61       -7.241562e-04
   62       -1.666062e+00
   63       -8.871784e-01
   64        1.396820e+00
   65       -2.794528e+00
   66       -1.214540e+00
   67        6.106257e-01
   68       -1.418975e+00
   69       -4.495425e+00
   70       -4.041169e+00
   71        8.577710e-01
   72       -3.294085e+00
   73        3.855190e-01
   74        6.265800e-01
   75       -7.493602e-01
   76        9.330274e-01
   77       -2.351606e+00
   78        1.635827e+00
   79        2.567997e+00
   80        4.084627e+00
   81        1.171167e+00
   82        1.597384e+00
   83        3.193617e+00
   84        2.869842e+00
   85       -5.394691e-01
   86       -1.032810e+00
   87       -3.168697e+00
   88       -1.987261e+00
   89       -1.714486e+00
   90       -1.412839e+00
   91        7.797089e-01
   92        1.244679e+00
   93       -2.935225e+00
   94       -2.950440e+00
   95        1.362496e-01
   96       -3.483152e+00
   97       -2.691533e+00
   98        2.010401e+00
   99        1.693105e+00
  100       -5.037484e-01
;
param X:=
    1        1.637377e+00
    2        5.488724e-01
    3        2.528080e+00
    4       -8.392480e-01
    5        4.817375e+00
    6       -2.223071e+00
    7       -1.330208e-01
    8        3.304921e+00
    9        1.781360e+00
   10       -3.195737e-01
   11       -8.180542e-01
   12        7.171751e-01
   13       -1.518094e+00
   14       -7.645530e-01
   15        7.764691e-01
   16       -1.458039e+00
   17       -6.622779e-01
   18        1.702685e+00
   19        1.497673e+00
   20        3.815266e+00
   21       -1.153357e+00
   22       -1.902158e+00
   23        8.670591e-01
   24        1.108631e+00
   25        4.675665e-01
   26       -1.771260e+00
   27        2.356231e+00
   28        6.203843e-01
   29       -2.849467e+00
   30        1.640691e-01
   31       -9.775834e-01
   32       -1.548937e-01
   33       -1.794142e+00
   34       -3.301055e-01
   35        2.530802e+00
   36        3.878527e+00
   37        7.351312e-01
   38        5.127245e-01
   39       -3.349583e+00
   40        3.112630e+00
   41        5.624475e-01
   42        4.675049e-01
   43        1.267548e+00
   44       -1.805285e-01
   45       -2.234974e-01
   46        3.565697e+00
   47       -4.572515e+00
   48        9.463718e-01
   49        1.201883e+00
   50        2.603217e+00
   51       -3.838549e-01
   52        5.605596e-01
   53       -2.781793e-01
   54        6.201861e-01
   55        1.816607e+00
   56        1.893123e+00
   57        3.294551e+00
   58        1.535807e+00
   59        6.541365e-01
   60        1.136032e+00
   61       -7.241562e-04
   62       -1.666062e+00
   63        2.090763e-01
   64        1.396820e+00
   65       -2.794528e+00
   66       -1.214540e+00
   67        6.106257e-01
   68        1.599588e+00
   69        3.416391e-01
   70       -4.041169e+00
   71        8.577710e-01
   72       -3.294085e+00
   73        3.855190e-01
   74        1.755756e+00
   75       -7.493602e-01
   76        9.330274e-01
   77        1.683718e+00
   78        1.635827e+00
   79        2.567997e+00
   80        4.084627e+00
   81        1.171167e+00
   82        1.597384e+00
   83        3.193617e+00
   84        2.869842e+00
   85        1.379238e+00
   86        8.923969e-01
   87       -3.168697e+00
   88       -1.987261e+00
   89       -1.714486e+00
   90       -1.412839e+00
   91        7.797089e-01
   92        1.244679e+00
   93       -2.935225e+00
   94       -2.950440e+00
   95        1.362496e-01
   96       -1.930690e+00
   97        2.618826e-01
   98        2.010401e+00
   99        1.693105e+00
  100       -5.037484e-01
;
param outliervec:=
    1    1
    2    0
    3    1
    4    1
    5    0
    6    0
    7    0
    8    0
    9    0
   10    0
   11    0
   12    0
   13    0
   14    0
   15    0
   16    0
   17    0
   18    0
   19    0
   20    0
   21    1
   22    0
   23    0
   24    0
   25    0
   26    0
   27    0
   28    0
   29    0
   30    0
   31    0
   32    0
   33    0
   34    1
   35    0
   36    0
   37    1
   38    0
   39    0
   40    0
   41    0
   42    1
   43    0
   44    1
   45    0
   46    0
   47    0
   48    0
   49    0
   50    0
   51    0
   52    0
   53    1
   54    0
   55    0
   56    0
   57    0
   58    0
   59    1
   60    1
   61    0
   62    0
   63    1
   64    0
   65    0
   66    0
   67    0
   68    1
   69    1
   70    0
   71    0
   72    0
   73    0
   74    1
   75    0
   76    0
   77    1
   78    0
   79    0
   80    0
   81    0
   82    0
   83    0
   84    0
   85    1
   86    1
   87    0
   88    0
   89    0
   90    0
   91    0
   92    0
   93    0
   94    0
   95    0
   96    1
   97    1
   98    0
   99    0
  100    0
;